2,5
4,2
5,9
7,6
9,3
11,0
12,7
14,4
16,2
17,9
19,8
22,0
24,2
26,5
27,8
27,8
27,8
27,8
27,8
27,8
27,8
27,8
27,8
27,8
27,8
27,8
27,8
27,8
27,8
27,8
27,8
27,8
27,8
27,8
27,8
27,8
27,8
27,8
27,8
27,8
27,8
27,8
27,8
27,8
27,8
27,8
27,8
27,8
27,8
27,8
27,8
27,8
27,8
27,8
27,8
27,8
27,8
27,8
27,8
27,8
27,8
27,8
27,8
27,8
27,8
27,8
27,8
27,8
27,8
27,8
27,8
27,8
27,8
27,8
27,8
27,8
27,8
27,8
27,8
27,8
27,8
27,8
27,8
27,8
27,8
27,8
27,8
27,8
27,8
27,8
27,8
27,8
27,8
27,8
27,8
27,8
27,8
27,8
27,8
27,8
27,8
27,8
27,8
27,8
27,8
27,8
27,8
27,8
27,8
27,8
27,8
27,8
27,8
27,8
27,8
27,8
27,8
27,8
27,8
27,8
27,8
27,8
27,8
27,8
27,8
27,8
27,8
27,8
27,8
27,8
27,8
27,8
27,8
27,8
27,8
27,8
27,8
27,8
27,8
27,8
27,8
27,8
27,8
27,8
27,8
27,8
27,8
27,8
27,8
27,8
27,8
27,8
27,8
27,8
27,8
27,8
27,8
27,8
27,8
27,8
27,8
27,8
27,8
27,8
27,8
27,8
27,8
27,8
27,8
27,8
27,8
27,8
27,8
27,8
27,8
27,8
27,8
27,8
27,8
27,8
27,8
27,8
27,8
27,8
27,8
27,8
27,8
27,8
27,8
27,8
27,8
27,8
27,8
27,8
27,8
27,8
27,8
27,8
27,8
27,8
27,8
27,8
27,8
27,8
27,8
27,8
27,8
27,8
27,8
27,8
27,8
27,8
27,8
27,8
27,8
27,8
27,8
27,8
27,8
27,8
27,8
27,8
27,8
27,8
27,8
27,8
27,8
27,8
27,8
27,8
27,8
27,8
27,8
27,8
27,8
27,8
27,8
27,8
27,8
27,8
27,8
27,8
27,8
27,8
27,8
27,8
27,8
27,8
27,8
27,8
27,8
27,8
27,8
27,8
27,8
27,8
27,8
27,8
27,8
27,8
27,8
27,8
27,8
27,8
27,8
27,8
27,8
27,8
27,8
27,8
27,8
27,8
27,8
27,8
27,8
27,8
27,8
27,8
27,8
27,8
27,8
27,8
27,8
27,8
27,8
27,8
27,8
27,8
27,8
27,8
27,8
27,8
27,8
27,8
27,8
27,8
27,8
27,8
27,8
27,8
27,8
27,8
27,8
27,8
27,8
27,8
27,8
27,8
27,8
27,8
27,8
27,8
27,8
27,8
27,8
27,8
27,8
27,8
27,8
27,8
27,8
27,8
27,8
27,8
27,8
27,8
27,8
27,8
27,8
27,8
27,8
27,8
27,8
27,8
27,8
27,8
27,8
27,8
27,8
27,8
27,8
27,8
27,8
27,8
27,8
27,8
27,8
27,8
27,8
27,8
27,8
27,8
27,8
27,8
27,8
27,8
27,8
27,8
27,8
27,8
27,8
27,8
27,8
27,8
27,8
27,8
27,8
27,8
27,8
27,8
27,8
27,8
27,8
27,8
27,8
27,8
27,8
27,8
27,8
27,8
27,8
27,8
27,8
27,8
27,8
27,8
27,8
27,8
27,8
27,8
27,8
27,8
27,8
27,8
27,8
27,8
27,8
27,8
27,8
27,8
27,8
27,8
27,8
27,8
27,8
27,8
27,8
27,8
27,8
27,8
27,8
27,8
27,8
27,8
27,8
27,8
27,8
27,8
27,8
27,8
27,8
27,8
27,8
27,8
27,8
27,8
27,8
27,8
27,8
27,8
27,8
27,8
27,8
27,8
27,8
27,8
27,8
27,8
27,8
27,8
27,8
27,8
27,8
27,8
27,8
27,8
27,8
27,8
27,8
27,8
27,8
27,8
27,8
27,8
27,8
27,8
27,8
27,8
27,8
27,8
27,8
27,8
27,8
27,8
27,8
27,8
27,8
27,8
27,8
27,8
27,8
27,8
27,8
27,8
27,8
27,8
27,8
27,8
27,8
27,8
27,8
27,8
27,8
27,8
27,8
27,8
27,8
27,8
27,8
27,8
27,8
27,8
27,8
27,8
27,8
27,8
27,8
27,8
27,8
27,8
27,8
27,8
27,8
27,8
27,8
27,8
27,8
27,8
27,8
27,8
27,8
27,8
27,8
27,8
27,8
27,8
27,8
27,8
27,8
27,8
27,8
27,8
27,8
27,8
27,8
27,8
27,8
27,8
27,8
27,8
27,8
27,8
27,8
27,8
27,8
27,8
27,8
27,8
27,8
27,8
27,8
27,8
27,8
27,8
27,8
27,8
27,8
27,8
27,8
27,8
27,8
27,8
27,8
27,8
27,8
27,8
27,8
27,8
27,8
27,8
27,8
27,8
27,8
27,8
27,8
27,8
27,8
27,8
27,8
27,8
27,8
27,8
27,8
27,8
27,8
27,8
27,8
27,8
27,8
27,8
27,8
27,8
27,8
27,8
27,8
27,8
27,8
27,8
27,8
27,8
27,8
27,8
27,8
27,8
27,8
27,8
27,8
27,8
27,8
27,8
27,8
27,8
27,8
27,8
27,8
27,8
27,8
27,8
27,8
27,8
27,8
27,8
27,8
27,8
27,8
27,8
27,8
27,8
27,8
27,8
27,8
27,8
27,8
27,8
27,8
27,8
27,8
27,8
27,8
27,8
27,8
27,8
27,8
27,8
27,8
27,8
27,8
27,8
27,8
27,8
27,8
27,8
27,8
27,8
27,8
27,8
27,8
27,8
27,8
27,8
27,8
27,8
27,8
27,8
27,8
27,8
27,8
27,8
27,8
27,8
27,8
27,8
27,8
27,8
27,8
27,8
27,8
27,8
27,8
27,8
27,8
27,8
27,8
27,8
27,8
27,8
27,8
27,8
27,8
27,8
27,8
27,8
27,8
27,8
27,8
27,8
27,8
27,8
27,8
27,8
27,8
27,8
27,8
27,8
27,8
27,8
27,8
27,8
27,8
27,8
27,8
27,8
27,8
27,8
27,8
27,8
27,8
27,8
27,8
27,8
27,8
27,8
27,8
27,8
27,8
27,8
27,8
27,8
27,8
27,8
27,8
27,8
27,8
27,8
27,8
27,8
27,8
27,8
27,8
27,8
27,8
27,8
27,8
27,8
27,8
27,8
27,8
27,8
27,8
27,8
27,8
27,8
27,8
27,8
27,8
27,8
27,8
27,8
27,8
27,8
27,8
27,8
27,8
27,8
27,8
27,8
27,8
27,8
27,8
27,8
27,8
27,8
27,8
27,8
27,8
27,8
27,8
27,8
27,8
27,8
27,8
27,8
27,8
27,8
27,8
27,8
27,8
27,8
27,8
27,8
27,8
27,8
27,8
27,8
27,8
27,8
27,8
27,8
27,8
27,8
27,8
27,8
27,8
27,8
27,8
27,8
27,8
27,8
27,8
27,8
27,8
27,8
27,8
27,8
27,8
27,8
27,8
27,8
27,8
27,8
27,8
27,8
27,8
27,8
27,8
27,8
27,8
27,8
27,8
27,8
27,8
27,8
27,8
27,8
27,8
27,8
27,8
27,8
27,8
27,8
27,8
27,8
27,8
27,8
27,8
27,8
27,8
27,8
27,8
27,8
27,8
27,8
27,8
27,8
27,8
27,8
27,8
27,8
27,8
27,8
27,8
27,8
27,8
27,8
27,8
27,8
27,8
27,8
27,8
27,8
27,8
27,8
27,8
27,8
27,8
27,8
27,8
27,8
27,8
27,8
27,8
27,8
27,8
27,8
27,8
27,8
27,8
27,8
27,8
27,8
27,8
27,8
27,8
27,8
27,8
27,8
27,8
27,8
27,8
27,8
27,8
27,8
27,8
27,8
27,8
27,8
27,8
27,8
27,8
27,8
27,8
27,8
27,8
27,8
27,8
27,8
27,8
27,8
27,8
27,8
27,8
27,8
27,8
27,8
27,8
27,8
27,8
27,8
27,8
27,8
27,8
27,8
27,8
27,8
27,8
27,8
27,8
27,8
27,8
27,8
27,8
27,8
27,8
27,8
27,8
27,8
27,8
27,8
27,8
27,8
27,8
27,8
27,8
27,8
27,8
27,8
27,8
27,8
27,8
27,8
27,8
27,8
27,8
27,8
27,8
27,8
27,8
27,8
27,8
27,8
27,8
27,8
27,8
27,8
27,8
27,8
27,8
27,8
27,8
27,8
27,8
27,8
27,8
27,8
27,8
27,8
27,8
27,8
27,8
27,8
27,8
0,0
